qbf_easy_train/easy_4238_SAT.qdimacs
p cnf 27 73
a 20 5 0
e 1 2 3 4 6 7 8 9 10 11 12 13 14 15 16 17 18 19 21 22 23 24 25 26 27 0
-3 1 0
-3 -2 0
-1 2 3 0
-5 -3 0
-5 -4 0
3 4 5 0
-6 7 -8 0
6 -7 -8 0
-6 -7 8 0
6 7 8 0
9 8 0
9 -7 0
-8 7 -9 0
-5 9 -10 0
5 -9 -10 0
-5 -9 10 0
5 9 10 0
12 -2 0
12 -11 0
2 11 -12 0
-4 -1 -14 0
4 1 -14 0
-4 1 14 0
4 -1 14 0
13 14 -15 0
-13 -14 -15 0
13 -14 15 0
-13 14 15 0
12 15 -16 0
-12 -15 -16 0
12 -15 16 0
-12 15 16 0
17 10 0
17 -16 0
-10 16 -17 0
-18 -4 0
-18 -14 0
4 14 18 0
18 -4 -19 0
-18 4 -19 0
18 4 19 0
-18 -4 19 0
20 -4 -21 0
-20 4 -21 0
20 4 21 0
-20 -4 21 0
22 -19 0
22 21 0
19 -21 -22 0
23 -17 0
23 22 0
17 -22 -23 0
-14 7 -24 0
14 -7 -24 0
-14 -7 24 0
14 7 24 0
25 -18 0
25 4 0
18 -4 -25 0
-26 -24 0
-26 25 0
24 -25 26 0
27 -23 0
27 -26 0
23 26 -27 0
11 -2 -7 -20 0
8 -4 2 27 10 0
16 -20 -23 0
-23 26 24 8 -3 0
17 -22 -1 0
-27 13 6 -14 -9 23 -20 0
-11 -18 -7 -4 2 24 -10 0
27 0
