sat_easy_train/easy_4238_SAT.dimacs
p cnf 136 460
3 1 0
3 2 0
-1 -2 -3 0
-6 4 0
-6 5 0
-4 -5 6 0
-3 6 -7 0
3 -6 -7 0
-3 -6 7 0
3 6 7 0
9 8 0
9 8 0
-8 -9 0
-10 4 -11 0
10 -4 -11 0
-10 -4 11 0
10 4 11 0
-12 -9 0
-12 -11 0
9 11 12 0
13 8 0
13 12 0
-8 -12 -13 0
7 13 -14 0
-7 -13 -14 0
7 -13 14 0
-7 13 14 0
-16 12 0
-16 -15 0
-12 15 16 0
2 -12 -17 0
-2 12 -17 0
2 12 17 0
-2 -12 17 0
19 17 0
19 -18 0
-17 18 -19 0
-20 16 0
-20 -19 0
-16 19 20 0
23 -4 0
23 -8 0
4 8 -23 0
24 22 0
24 23 0
-22 -23 -24 0
-25 -24 0
-25 8 0
24 -8 25 0
26 -8 0
26 -25 0
8 25 -26 0
27 21 0
27 26 0
-21 -26 -27 0
28 -4 0
28 -27 0
4 27 -28 0
20 28 -29 0
-20 -28 -29 0
20 -28 29 0
-20 28 29 0
14 29 -30 0
-14 -29 -30 0
14 -29 30 0
-14 29 30 0
13 27 -31 0
-13 -27 -31 0
13 -27 31 0
-13 27 31 0
10 -31 -32 0
-10 31 -32 0
10 31 32 0
-10 -31 32 0
-30 -32 -33 0
30 32 -33 0
-30 32 33 0
30 -32 33 0
-15 -12 -34 0
15 12 -34 0
-15 12 34 0
15 -12 34 0
35 -34 0
35 23 0
34 -23 -35 0
-36 34 0
-36 35 0
-34 -35 36 0
37 33 0
37 -36 0
-33 36 -37 0
38 39 -40 0
-38 -39 -40 0
38 -39 40 0
-38 39 40 0
-40 16 -41 0
40 -16 -41 0
-40 -16 41 0
40 16 41 0
-42 -16 0
-42 -41 0
16 41 42 0
43 37 0
43 -42 0
-37 42 -43 0
44 -39 0
44 -26 0
39 26 -44 0
-44 45 0
44 45 0
46 4 0
46 -16 0
-4 16 -46 0
-4 23 -47 0
4 -23 -47 0
-4 -23 47 0
4 23 47 0
5 8 -48 0
-5 -8 -48 0
5 -8 48 0
-5 8 48 0
49 -47 0
49 -48 0
47 48 -49 0
50 -46 0
50 -49 0
46 49 -50 0
51 45 0
51 50 0
-45 -50 -51 0
-8 -2 -52 0
8 2 -52 0
-8 2 52 0
8 -2 52 0
-53 -24 0
-53 52 0
24 -52 53 0
54 -1 0
54 15 0
1 -15 -54 0
-55 -10 0
-55 54 0
10 -54 55 0
-56 53 0
-56 -55 0
-53 55 56 0
56 -45 -57 0
-56 45 -57 0
56 45 57 0
-56 -45 57 0
-58 51 0
-58 57 0
-51 -57 58 0
-54 27 -59 0
54 -27 -59 0
-54 -27 59 0
54 27 59 0
60 58 0
60 59 0
-58 -59 -60 0
-61 22 0
-61 7 0
-22 -7 61 0
62 -20 0
62 61 0
20 -61 -62 0
-65 11 0
-65 64 0
-11 -64 65 0
66 63 0
66 -65 0
-63 65 -66 0
-67 12 0
-67 -19 0
-12 19 67 0
-66 -67 -68 0
66 67 -68 0
-66 67 68 0
66 -67 68 0
-69 23 0
-69 48 0
-23 -48 69 0
70 -68 0
70 -69 0
68 69 -70 0
71 -62 0
71 70 0
62 -70 -71 0
73 23 0
73 72 0
-23 -72 -73 0
-74 73 0
-74 19 0
-73 -19 74 0
75 -39 0
75 -74 0
39 74 -75 0
-76 55 0
-76 -64 0
-55 64 76 0
-77 35 0
-77 -76 0
-35 76 77 0
77 -63 -78 0
-77 63 -78 0
77 63 78 0
-77 -63 78 0
79 75 0
79 -78 0
-75 78 -79 0
-71 -79 -80 0
71 79 -80 0
-71 79 80 0
71 -79 80 0
-81 3 0
-81 18 0
-3 -18 81 0
82 -10 0
82 -8 0
10 8 -82 0
-83 -8 0
-83 -82 0
8 82 83 0
-84 5 0
-84 83 0
-5 -83 84 0
85 -39 0
85 56 0
39 -56 -85 0
86 -85 0
86 -17 0
85 17 -86 0
87 84 0
87 -86 0
-84 86 -87 0
-88 13 0
-88 87 0
-13 -87 88 0
89 -55 0
89 -9 0
55 9 -89 0
-5 -16 -90 0
5 16 -90 0
-5 16 90 0
5 -16 90 0
-91 89 0
-91 -90 0
-89 90 91 0
88 -91 -92 0
-88 91 -92 0
88 91 92 0
-88 -91 92 0
-81 92 -93 0
81 -92 -93 0
-81 -92 93 0
81 92 93 0
27 -13 -94 0
-27 13 -94 0
27 13 94 0
-27 -13 94 0
-93 94 -95 0
93 -94 -95 0
-93 -94 95 0
93 94 95 0
-96 -80 0
-96 -95 0
80 95 96 0
-15 -4 -97 0
15 4 -97 0
-15 4 97 0
15 -4 97 0
98 -97 0
98 -38 0
97 38 -98 0
99 74 0
99 98 0
-74 -98 -99 0
44 40 -100 0
-44 -40 -100 0
44 -40 100 0
-44 40 100 0
-101 -99 0
-101 -100 0
99 100 101 0
102 -72 0
102 82 0
72 -82 -102 0
52 84 -103 0
-52 -84 -103 0
52 -84 103 0
-52 84 103 0
104 12 0
104 -103 0
-12 103 -104 0
102 104 -105 0
-102 -104 -105 0
102 -104 105 0
-102 104 105 0
106 17 -107 0
-106 -17 -107 0
106 -17 107 0
-106 17 107 0
105 -107 -108 0
-105 107 -108 0
105 107 108 0
-105 -107 108 0
-101 108 -109 0
101 -108 -109 0
-101 -108 109 0
101 108 109 0
96 109 -110 0
-96 -109 -110 0
96 -109 110 0
-96 109 110 0
-53 -10 -111 0
53 10 -111 0
-53 10 111 0
53 -10 111 0
-112 111 0
-112 1 0
-111 -1 112 0
113 -61 0
113 16 0
61 -16 -113 0
-114 8 0
-114 39 0
-8 -39 114 0
-115 113 0
-115 114 0
-113 -114 115 0
-30 -7 -116 0
30 7 -116 0
-30 7 116 0
30 -7 116 0
117 -21 0
117 -19 0
21 19 -117 0
-118 -116 0
-118 -117 0
116 117 118 0
115 -118 -119 0
-115 118 -119 0
115 118 119 0
-115 -118 119 0
-120 112 0
-120 119 0
-112 -119 120 0
-121 34 0
-121 98 0
-34 -98 121 0
-122 120 0
-122 -121 0
-120 121 122 0
123 54 0
123 -56 0
-54 56 -123 0
-123 -21 -124 0
123 21 -124 0
-123 21 124 0
123 -21 124 0
125 -48 0
125 -8 0
48 8 -125 0
126 -124 0
126 -125 0
124 125 -126 0
127 -34 0
127 123 0
34 -123 -127 0
128 97 0
128 83 0
-97 -83 -128 0
-127 128 -129 0
127 -128 -129 0
-127 -128 129 0
127 128 129 0
-130 -126 0
-130 129 0
126 -129 130 0
131 -15 0
131 52 0
15 -52 -131 0
132 130 0
132 -131 0
-130 131 -132 0
133 -122 0
133 -132 0
122 132 -133 0
-110 -133 -134 0
110 133 -134 0
-110 133 134 0
110 -133 134 0
-60 -134 -135 0
60 134 -135 0
-60 134 135 0
60 -134 135 0
136 -43 0
136 135 0
43 -135 -136 0
66 -59 -56 -28 0
-102 45 0
63 119 -85 30 4 0
81 -69 -108 -27 116 1 0
134 -103 20 0
-62 78 -58 -41 -52 -14 0
14 130 12 -93 -47 0
-58 126 -37 17 56 0
55 -88 -58 0
34 -61 98 55 -127 8 0
-64 0
-126 37 -64 18 0
92 101 -96 0
57 18 0
-44 97 133 -6 0
-2 25 -132 0
-103 62 -61 -45 -48 0
134 94 -86 72 0
-20 -116 0
70 -22 0
-93 113 0
-119 -92 86 -19 9 -90 0
91 -81 -11 60 67 0
-54 109 0
95 45 116 49 -87 0
-77 26 -131 0
-121 101 130 109 105 0
-127 44 -70 0
111 -88 -112 122 -136 0
57 -78 20 0
52 -41 26 -79 0
-90 50 56 -7 32 0
-87 23 0
-40 17 78 118 50 0
-47 61 25 83 107 0
97 30 72 -57 56 0
5 48 127 0
133 64 135 0
123 17 -65 33 3 0
76 91 53 -8 -133 -57 0
100 107 0
49 -32 0
101 83 -100 0
41 32 0
126 -109 0
-29 -7 0
-26 113 136 73 31 0
107 33 56 0
-59 -134 -77 -127 -132 -26 0
56 91 -77 0
-1 -107 -114 85 0
-107 51 -45 56 96 0
-86 124 -108 0
117 -99 8 -107 17 0
-130 -44 47 -43 -85 0
-71 30 62 -122 -8 -121 0
95 94 105 127 0
101 47 68 0
78 26 95 -82 -72 0
102 -125 -40 0
136 0
